NAME : n20w80.005.264.tour
COMMENT : Length = 264
COMMENT : Found by LKH [Keld Helsgaun] Tue May  2 05:18:25 2017
TYPE : TOUR
DIMENSION : 21
TOUR_SECTION
1
4
7
10
11
20
2
9
17
14
6
15
13
8
5
16
3
12
18
21
19
-1
EOF
